(set-option :produce-models true); benchmark generated from python API
(set-info :status unknown)
(declare-fun l_0_0_13 () Real)
(declare-fun l_0_0_1 () Real)
(declare-fun _a_0_ () Real)
(declare-fun l_0_0_5 () Real)
(declare-fun l_0_0_3 () Real)
(declare-fun l_0_0_4 () Real)
(declare-fun l_0_0_2 () Real)
(declare-fun l_0_0_17 () Real)
(declare-fun l_0_0_15 () Real)
(declare-fun l_0_0_16 () Real)
(declare-fun l_0_0_14 () Real)
(declare-fun l_0_0_7 () Real)
(declare-fun l_0_0_10 () Real)
(declare-fun _a_1_ () Real)
(declare-fun _a_2_ () Real)
(declare-fun l_0_0_6 () Real)
(declare-fun l_0_0_18 () Real)
(declare-fun _a_3_ () Real)
(declare-fun _a_4_ () Real)
(declare-fun l_0_0_8 () Real)
(declare-fun _a_5_ () Real)
(declare-fun l_0_0_9 () Real)
(declare-fun l_0_0_11 () Real)
(declare-fun l_0_0_12 () Real)
(declare-fun l_0_1_7 () Real)
(declare-fun l_0_1_13 () Real)
(declare-fun l_0_1_1 () Real)
(declare-fun l_0_1_8 () Real)
(declare-fun l_0_1_14 () Real)
(declare-fun l_0_1_2 () Real)
(declare-fun l_0_1_16 () Real)
(declare-fun l_0_1_10 () Real)
(declare-fun l_0_1_4 () Real)
(declare-fun l_0_1_9 () Real)
(declare-fun l_0_1_15 () Real)
(declare-fun l_0_1_3 () Real)
(declare-fun l_0_1_17 () Real)
(declare-fun l_0_1_11 () Real)
(declare-fun l_0_1_5 () Real)
(declare-fun l_0_1_18 () Real)
(declare-fun l_0_1_12 () Real)
(declare-fun l_0_1_6 () Real)
(declare-fun l_0_2_7 () Real)
(declare-fun l_0_2_13 () Real)
(declare-fun l_0_2_1 () Real)
(declare-fun l_0_2_12 () Real)
(declare-fun l_0_2_11 () Real)
(declare-fun l_0_2_10 () Real)
(declare-fun l_0_2_6 () Real)
(declare-fun l_0_2_5 () Real)
(declare-fun l_0_2_4 () Real)
(declare-fun l_0_2_9 () Real)
(declare-fun l_0_2_8 () Real)
(declare-fun l_0_2_3 () Real)
(declare-fun l_0_2_2 () Real)
(declare-fun l_0_2_18 () Real)
(declare-fun l_0_2_17 () Real)
(declare-fun l_0_2_16 () Real)
(declare-fun l_0_2_15 () Real)
(declare-fun l_0_2_14 () Real)
(assert
 (let ((?x69 (* l_0_0_13 l_0_0_13)))
 (let ((?x65 (* l_0_0_1 l_0_0_1)))
 (let ((?x67 (* (/ 99.0 100.0) ?x65)))
 (let ((?x68 (+ _a_0_ ?x67)))
 (= (- ?x68 ?x69) 0.0))))))
(assert
 (let ((?x103 (- (- _a_1_ (* (* 4.0 l_0_0_1) l_0_0_2)) (* (* (/ 2.0 5.0) l_0_0_10) l_0_0_7))))
 (let ((?x110 (- (- ?x103 (* (* 2.0 l_0_0_14) l_0_0_16)) (* (* 2.0 l_0_0_15) l_0_0_17))))
 (let ((?x117 (+ (+ ?x110 (* (* (/ 99.0 50.0) l_0_0_2) l_0_0_4)) (* (* (/ 99.0 50.0) l_0_0_3) l_0_0_5))))
 (= ?x117 0.0)))))
(assert
 (let ((?x157 (- (+ _a_2_ (* (* (/ 99.0 50.0) l_0_0_1) l_0_0_4)) (* (* 2.0 l_0_0_1) l_0_0_1))))
 (= (- ?x157 (* (* 2.0 l_0_0_13) l_0_0_16)) 0.0)))
(assert
 (let ((?x192 (* l_0_0_6 l_0_0_6)))
 (let ((?x193 (* (/ 99.0 100.0) ?x192)))
 (let ((?x189 (* l_0_0_5 l_0_0_5)))
 (let ((?x190 (* (/ 99.0 100.0) ?x189)))
 (let ((?x186 (* l_0_0_4 l_0_0_4)))
 (let ((?x187 (* (/ 99.0 100.0) ?x186)))
 (let ((?x184 (* l_0_0_18 l_0_0_18)))
 (let ((?x182 (* l_0_0_17 l_0_0_17)))
 (let ((?x180 (* l_0_0_16 l_0_0_16)))
 (let ((?x65 (* l_0_0_1 l_0_0_1)))
 (let ((?x183 (- (- (+ (- _a_3_ (* (* 4.0 l_0_0_1) l_0_0_4)) ?x65) ?x180) ?x182)))
 (= (+ (+ (+ (- ?x183 ?x184) ?x187) ?x190) ?x193) 0.0)))))))))))))
(assert
 (let ((?x216 (- (+ _a_4_ (* (* (/ 99.0 50.0) l_0_0_1) l_0_0_2)) (* (* 2.0 l_0_0_13) l_0_0_14))))
 (= (- ?x216 (* (* (/ 1.0 5.0) l_0_0_7) l_0_0_7)) 0.0)))
(assert
 (let ((?x230 (* l_0_0_7 l_0_0_7)))
 (let ((?x245 (* l_0_0_3 l_0_0_3)))
 (let ((?x246 (* (/ 99.0 100.0) ?x245)))
 (let ((?x242 (* l_0_0_2 l_0_0_2)))
 (let ((?x243 (* (/ 99.0 100.0) ?x242)))
 (let ((?x244 (+ (- (- _a_5_ (* l_0_0_14 l_0_0_14)) (* l_0_0_15 l_0_0_15)) ?x243)))
 (= (+ (- (+ ?x244 ?x246) (* (* (/ 2.0 5.0) l_0_0_7) l_0_0_8)) ?x230) 0.0))))))))
(assert
 (let ((?x270 (- (* (* 2.0 l_0_0_10) l_0_0_7) (* (* (/ 2.0 5.0) l_0_0_10) l_0_0_8))))
 (let ((?x276 (- (- ?x270 (* (* (/ 2.0 5.0) l_0_0_11) l_0_0_9)) (* (* 2.0 l_0_0_2) l_0_0_2))))
 (= (- ?x276 (* (* 2.0 l_0_0_3) l_0_0_3)) 0.0))))
(assert
 (let ((?x308 (- (* (* 2.0 l_0_0_1) l_0_0_2) (* (* (/ 1.0 5.0) l_0_0_10) l_0_0_10))))
 (let ((?x314 (- (- ?x308 (* (* (/ 1.0 5.0) l_0_0_11) l_0_0_11)) (* (* (/ 1.0 5.0) l_0_0_12) l_0_0_12))))
 (let ((?x320 (- (- ?x314 (* (* 4.0 l_0_0_2) l_0_0_4)) (* (* 4.0 l_0_0_3) l_0_0_5))))
 (= ?x320 0.0)))))
(assert
 (let ((?x355 (- (* (* 2.0 l_0_0_1) l_0_0_4) (* (* 2.0 l_0_0_4) l_0_0_4))))
 (let ((?x361 (- (- ?x355 (* (* 2.0 l_0_0_5) l_0_0_5)) (* (* 2.0 l_0_0_6) l_0_0_6))))
 (= ?x361 0.0))))
(assert
 (let ((?x245 (* l_0_0_3 l_0_0_3)))
 (let ((?x242 (* l_0_0_2 l_0_0_2)))
 (let ((?x335 (* l_0_0_12 l_0_0_12)))
 (let ((?x382 (+ (+ (+ (* l_0_0_10 l_0_0_10) (* l_0_0_11 l_0_0_11)) ?x335) ?x242)))
 (= (+ ?x382 ?x245) 0.0))))))
(assert
 (let ((?x389 (+ (* (* 2.0 l_0_0_2) l_0_0_4) (* (* 2.0 l_0_0_3) l_0_0_5))))
 (= ?x389 0.0)))
(assert
 (let ((?x192 (* l_0_0_6 l_0_0_6)))
 (= (+ (+ (* l_0_0_4 l_0_0_4) (* l_0_0_5 l_0_0_5)) ?x192) 0.0)))
(assert
 (let ((?x404 (- (* (* 2.0 l_0_0_7) l_0_0_8) (* (* (/ 1.0 5.0) l_0_0_8) l_0_0_8))))
 (= (- ?x404 (* (* (/ 1.0 5.0) l_0_0_9) l_0_0_9)) 0.0)))
(assert
 (= (+ (* l_0_0_8 l_0_0_8) (* l_0_0_9 l_0_0_9)) 0.0))
(assert
 (let ((?x428 (+ (* (* 2.0 l_0_0_10) l_0_0_8) (* (* 2.0 l_0_0_11) l_0_0_9))))
 (= ?x428 0.0)))
(assert
 (>= l_0_0_1 0.0))
(assert
 (>= l_0_0_3 0.0))
(assert
 (>= l_0_0_6 0.0))
(assert
 (>= l_0_0_7 0.0))
(assert
 (>= l_0_0_9 0.0))
(assert
 (>= l_0_0_12 0.0))
(assert
 (>= l_0_0_13 0.0))
(assert
 (>= l_0_0_15 0.0))
(assert
 (>= l_0_0_18 0.0))
(assert
 (let ((?x450 (+ (- (* (* (- _a_0_) l_0_1_1) l_0_1_1) (* l_0_1_13 l_0_1_13)) (* 2.0 (* l_0_1_7 l_0_1_7)))))
 (= (+ ?x450 2.0) 0.0)))
(assert
 (let ((?x467 (- (* (* (* (- 2.0) _a_0_) l_0_1_1) l_0_1_2) (* (* _a_4_ l_0_1_1) l_0_1_1))))
 (let ((?x473 (+ (- ?x467 (* (* 2.0 l_0_1_13) l_0_1_14)) (* (* 4.0 l_0_1_7) l_0_1_8))))
 (= (- ?x473 1.0) 0.0))))
(assert
 (let ((?x502 (- (* (* (* (- 2.0) _a_0_) l_0_1_1) l_0_1_4) (* (* _a_2_ l_0_1_1) l_0_1_1))))
 (let ((?x507 (- (+ ?x502 (* (* 4.0 l_0_1_10) l_0_1_7)) (* (* 2.0 l_0_1_13) l_0_1_16))))
 (= (- ?x507 2.0) 0.0))))
(assert
 (let ((?x448 (* l_0_1_7 l_0_1_7)))
 (let ((?x546 (* l_0_1_15 l_0_1_15)))
 (let ((?x544 (* l_0_1_14 l_0_1_14)))
 (let ((?x540 (- (* (- _a_0_) (+ (* l_0_1_2 l_0_1_2) (* l_0_1_3 l_0_1_3))) (* (* (* 2.0 _a_4_) l_0_1_1) l_0_1_2))))
 (let ((?x548 (- (- (- (- ?x540 (* (* _a_5_ l_0_1_1) l_0_1_1)) ?x544) ?x546) ?x448)))
 (let ((?x554 (+ (+ ?x548 (* 2.0 (* l_0_1_8 l_0_1_8))) (* 2.0 (* l_0_1_9 l_0_1_9)))))
 (= ?x554 0.0))))))))
(assert
 (let ((?x588 (+ (* (* 2.0 l_0_1_2) l_0_1_4) (* (* 2.0 l_0_1_3) l_0_1_5))))
 (let ((?x443 (- _a_0_)))
 (let ((?x596 (- (- (* ?x443 ?x588) (* (* _a_1_ l_0_1_1) l_0_1_1)) (* (* (* 2.0 _a_2_) l_0_1_1) l_0_1_2))))
 (let ((?x600 (+ (- ?x596 (* (* (* 2.0 _a_4_) l_0_1_1) l_0_1_4)) (* (* 4.0 l_0_1_10) l_0_1_8))))
 (let ((?x606 (- (+ ?x600 (* (* 4.0 l_0_1_11) l_0_1_9)) (* (* 2.0 l_0_1_14) l_0_1_16))))
 (= (- ?x606 (* (* 2.0 l_0_1_15) l_0_1_17)) 0.0)))))))
(assert
 (let ((?x448 (* l_0_1_7 l_0_1_7)))
 (let ((?x682 (* l_0_1_18 l_0_1_18)))
 (let ((?x680 (* l_0_1_17 l_0_1_17)))
 (let ((?x678 (* l_0_1_16 l_0_1_16)))
 (let ((?x675 (* l_0_1_12 l_0_1_12)))
 (let ((?x676 (* 2.0 ?x675)))
 (let ((?x672 (* l_0_1_11 l_0_1_11)))
 (let ((?x673 (* 2.0 ?x672)))
 (let ((?x669 (* l_0_1_10 l_0_1_10)))
 (let ((?x670 (* 2.0 ?x669)))
 (let ((?x661 (* l_0_1_6 l_0_1_6)))
 (let ((?x662 (+ (+ (* l_0_1_4 l_0_1_4) (* l_0_1_5 l_0_1_5)) ?x661)))
 (let ((?x443 (- _a_0_)))
 (let ((?x668 (- (- (* ?x443 ?x662) (* (* (* 2.0 _a_2_) l_0_1_1) l_0_1_4)) (* (* _a_3_ l_0_1_1) l_0_1_1))))
 (let ((?x684 (- (- (- (- (+ (+ (+ ?x668 ?x670) ?x673) ?x676) ?x678) ?x680) ?x682) ?x448)))
 (= ?x684 0.0)))))))))))))))))
(assert
 (let ((?x732 (* 2.0 l_0_1_10)))
 (let ((?x733 (* ?x732 l_0_1_7)))
 (let ((?x588 (+ (* (* 2.0 l_0_1_2) l_0_1_4) (* (* 2.0 l_0_1_3) l_0_1_5))))
 (let ((?x725 (- (* (* (* (- 2.0) _a_1_) l_0_1_1) l_0_1_2) (* _a_2_ (+ (* l_0_1_2 l_0_1_2) (* l_0_1_3 l_0_1_3))))))
 (let ((?x731 (- (- ?x725 (* _a_4_ ?x588)) (* (* (* 2.0 _a_5_) l_0_1_1) l_0_1_4))))
 (= (- ?x731 ?x733) 0.0)))))))
(assert
 (let ((?x792 (* (* 2.0 l_0_1_7) l_0_1_8)))
 (let ((?x661 (* l_0_1_6 l_0_1_6)))
 (let ((?x662 (+ (+ (* l_0_1_4 l_0_1_4) (* l_0_1_5 l_0_1_5)) ?x661)))
 (let ((?x588 (+ (* (* 2.0 l_0_1_2) l_0_1_4) (* (* 2.0 l_0_1_3) l_0_1_5))))
 (let ((?x788 (- (- (* (* (* (- 2.0) _a_1_) l_0_1_1) l_0_1_4) (* _a_2_ ?x588)) (* (* (* 2.0 _a_3_) l_0_1_1) l_0_1_2))))
 (= (- (- ?x788 (* _a_4_ ?x662)) ?x792) 0.0)))))))
(assert
 (let ((?x852 (* (* 2.0 l_0_1_11) l_0_1_9)))
 (let ((?x732 (* 2.0 l_0_1_10)))
 (let ((?x849 (* ?x732 l_0_1_8)))
 (let ((?x588 (+ (* (* 2.0 l_0_1_2) l_0_1_4) (* (* 2.0 l_0_1_3) l_0_1_5))))
 (let ((?x848 (- (* (- _a_1_) (+ (* l_0_1_2 l_0_1_2) (* l_0_1_3 l_0_1_3))) (* _a_5_ ?x588))))
 (= (- (- ?x848 ?x849) ?x852) 0.0)))))))
(assert
 (let ((?x552 (* l_0_1_9 l_0_1_9)))
 (let ((?x549 (* l_0_1_8 l_0_1_8)))
 (let ((?x675 (* l_0_1_12 l_0_1_12)))
 (let ((?x672 (* l_0_1_11 l_0_1_11)))
 (let ((?x669 (* l_0_1_10 l_0_1_10)))
 (let ((?x661 (* l_0_1_6 l_0_1_6)))
 (let ((?x662 (+ (+ (* l_0_1_4 l_0_1_4) (* l_0_1_5 l_0_1_5)) ?x661)))
 (let ((?x588 (+ (* (* 2.0 l_0_1_2) l_0_1_4) (* (* 2.0 l_0_1_3) l_0_1_5))))
 (let ((?x845 (- _a_1_)))
 (let ((?x892 (- (* ?x845 ?x588) (* _a_3_ (+ (* l_0_1_2 l_0_1_2) (* l_0_1_3 l_0_1_3))))))
 (let ((?x899 (- (- (- (- (- (- ?x892 (* _a_5_ ?x662)) ?x669) ?x672) ?x675) ?x549) ?x552)))
 (= ?x899 0.0)))))))))))))
(assert
 (let ((?x852 (* (* 2.0 l_0_1_11) l_0_1_9)))
 (let ((?x732 (* 2.0 l_0_1_10)))
 (let ((?x849 (* ?x732 l_0_1_8)))
 (let ((?x588 (+ (* (* 2.0 l_0_1_2) l_0_1_4) (* (* 2.0 l_0_1_3) l_0_1_5))))
 (let ((?x661 (* l_0_1_6 l_0_1_6)))
 (let ((?x662 (+ (+ (* l_0_1_4 l_0_1_4) (* l_0_1_5 l_0_1_5)) ?x661)))
 (let ((?x845 (- _a_1_)))
 (= (- (- (- (* ?x845 ?x662) (* _a_3_ ?x588)) ?x849) ?x852) 0.0)))))))))
(assert
 (let ((?x732 (* 2.0 l_0_1_10)))
 (let ((?x733 (* ?x732 l_0_1_7)))
 (let ((?x661 (* l_0_1_6 l_0_1_6)))
 (let ((?x662 (+ (+ (* l_0_1_4 l_0_1_4) (* l_0_1_5 l_0_1_5)) ?x661)))
 (let ((?x986 (- _a_2_)))
 (let ((?x990 (- (- (* ?x986 ?x662) (* (* (* 2.0 _a_3_) l_0_1_1) l_0_1_4)) ?x733)))
 (= ?x990 0.0))))))))
(assert
 (let ((?x675 (* l_0_1_12 l_0_1_12)))
 (let ((?x672 (* l_0_1_11 l_0_1_11)))
 (let ((?x669 (* l_0_1_10 l_0_1_10)))
 (let ((?x661 (* l_0_1_6 l_0_1_6)))
 (let ((?x662 (+ (+ (* l_0_1_4 l_0_1_4) (* l_0_1_5 l_0_1_5)) ?x661)))
 (= (- (- (- (* (- _a_3_) ?x662) ?x669) ?x672) ?x675) 0.0)))))))
(assert
 (let ((?x792 (* (* 2.0 l_0_1_7) l_0_1_8)))
 (let ((?x1036 (- (* (- _a_4_) (+ (* l_0_1_2 l_0_1_2) (* l_0_1_3 l_0_1_3))) (* (* (* 2.0 _a_5_) l_0_1_1) l_0_1_2))))
 (= (- ?x1036 ?x792) 0.0))))
(assert
 (let ((?x552 (* l_0_1_9 l_0_1_9)))
 (let ((?x549 (* l_0_1_8 l_0_1_8)))
 (let ((?x1058 (- (* (- _a_5_) (+ (* l_0_1_2 l_0_1_2) (* l_0_1_3 l_0_1_3))) ?x549)))
 (= (- ?x1058 ?x552) 0.0)))))
(assert
 (>= l_0_1_1 0.0))
(assert
 (>= l_0_1_3 0.0))
(assert
 (>= l_0_1_6 0.0))
(assert
 (>= l_0_1_7 0.0))
(assert
 (>= l_0_1_9 0.0))
(assert
 (>= l_0_1_12 0.0))
(assert
 (>= l_0_1_13 0.0))
(assert
 (>= l_0_1_15 0.0))
(assert
 (>= l_0_1_18 0.0))
(assert
 (let ((?x1085 (* l_0_2_13 l_0_2_13)))
 (let ((?x1089 (- (- (+ (* (* (- _a_0_) l_0_2_1) l_0_2_1) _a_0_) ?x1085) (* (* 2.0 l_0_2_7) l_0_2_7))))
 (= ?x1089 0.0))))
(assert
 (let ((?x1123 (* l_0_2_12 l_0_2_12)))
 (let ((?x1121 (* l_0_2_11 l_0_2_11)))
 (let ((?x1119 (* l_0_2_10 l_0_2_10)))
 (let ((?x1117 (* (/ 9.0 25.0) _a_5_)))
 (let ((?x1109 (* l_0_2_6 l_0_2_6)))
 (let ((?x1110 (+ (+ (* l_0_2_4 l_0_2_4) (* l_0_2_5 l_0_2_5)) ?x1109)))
 (let ((?x1105 (* (- (/ 3.0 10.0)) _a_1_)))
 (let ((?x1122 (+ (+ (+ (+ (- ?x1105 (* _a_3_ ?x1110)) (* (/ 1.0 4.0) _a_3_)) ?x1117) ?x1119) ?x1121)))
 (= (+ ?x1122 ?x1123) 0.0))))))))))
(assert
 (let ((?x1176 (* l_0_2_9 l_0_2_9)))
 (let ((?x1174 (* l_0_2_8 l_0_2_8)))
 (let ((?x1123 (* l_0_2_12 l_0_2_12)))
 (let ((?x1121 (* l_0_2_11 l_0_2_11)))
 (let ((?x1119 (* l_0_2_10 l_0_2_10)))
 (let ((?x1117 (* (/ 9.0 25.0) _a_5_)))
 (let ((?x1109 (* l_0_2_6 l_0_2_6)))
 (let ((?x1110 (+ (+ (* l_0_2_4 l_0_2_4) (* l_0_2_5 l_0_2_5)) ?x1109)))
 (let ((?x1166 (* (/ 2.0 5.0) _a_3_)))
 (let ((?x1159 (* (/ 9.0 100.0) _a_1_)))
 (let ((?x1156 (+ (* (* 2.0 l_0_2_2) l_0_2_4) (* (* 2.0 l_0_2_3) l_0_2_5))))
 (let ((?x845 (- _a_1_)))
 (let ((?x1165 (- (- (* ?x845 ?x1156) ?x1159) (* _a_3_ (+ (* l_0_2_2 l_0_2_2) (* l_0_2_3 l_0_2_3))))))
 (let ((?x1173 (+ (+ (+ (- (- (+ ?x1165 ?x1166) (* _a_5_ ?x1110)) ?x1117) ?x1119) ?x1121) ?x1123)))
 (= (+ (+ ?x1173 ?x1174) ?x1176) 0.0))))))))))))))))
(assert
 (let ((?x1176 (* l_0_2_9 l_0_2_9)))
 (let ((?x1174 (* l_0_2_8 l_0_2_8)))
 (let ((?x1237 (* (/ 9.0 100.0) _a_5_)))
 (let ((?x1233 (* (/ 4.0 25.0) _a_3_)))
 (let ((?x1231 (* (/ 3.0 25.0) _a_1_)))
 (let ((?x1234 (+ ?x1231 ?x1233)))
 (let ((?x1236 (- ?x1234 (* _a_5_ (+ (* l_0_2_2 l_0_2_2) (* l_0_2_3 l_0_2_3))))))
 (= (+ (+ (+ ?x1236 ?x1237) ?x1174) ?x1176) 0.0)))))))))
(assert
 (let ((?x1097 (* l_0_2_7 l_0_2_7)))
 (let ((?x1282 (* l_0_2_18 l_0_2_18)))
 (let ((?x1280 (* l_0_2_17 l_0_2_17)))
 (let ((?x1278 (* l_0_2_16 l_0_2_16)))
 (let ((?x1267 (* (/ 3.0 5.0) _a_4_)))
 (let ((?x1261 (* (/ 1.0 2.0) _a_2_)))
 (let ((?x1109 (* l_0_2_6 l_0_2_6)))
 (let ((?x1110 (+ (+ (* l_0_2_4 l_0_2_4) (* l_0_2_5 l_0_2_5)) ?x1109)))
 (let ((?x443 (- _a_0_)))
 (let ((?x1262 (+ (- (* ?x443 ?x1110) (* (* (* 2.0 _a_2_) l_0_2_1) l_0_2_4)) ?x1261)))
 (let ((?x1271 (- (- (- ?x1262 (* (* _a_3_ l_0_2_1) l_0_2_1)) ?x1267) (* (* 2.0 l_0_2_10) l_0_2_10))))
 (let ((?x1277 (- (- ?x1271 (* (* 2.0 l_0_2_11) l_0_2_11)) (* (* 2.0 l_0_2_12) l_0_2_12))))
 (= (+ (- (- (- ?x1277 ?x1278) ?x1280) ?x1282) ?x1097) 0.0))))))))))))))
(assert
 (let ((?x1097 (* l_0_2_7 l_0_2_7)))
 (let ((?x1348 (* l_0_2_15 l_0_2_15)))
 (let ((?x1346 (* l_0_2_14 l_0_2_14)))
 (let ((?x1341 (* (/ 3.0 10.0) _a_4_)))
 (let ((?x1336 (* (/ 2.0 5.0) _a_2_)))
 (let ((?x1337 (+ (* (- _a_0_) (+ (* l_0_2_2 l_0_2_2) (* l_0_2_3 l_0_2_3))) ?x1336)))
 (let ((?x1345 (- (+ (- ?x1337 (* (* (* 2.0 _a_4_) l_0_2_1) l_0_2_2)) ?x1341) (* (* _a_5_ l_0_2_1) l_0_2_1))))
 (let ((?x1353 (- (+ (- (- ?x1345 ?x1346) ?x1348) ?x1097) (* (* 2.0 l_0_2_8) l_0_2_8))))
 (= (- ?x1353 (* (* 2.0 l_0_2_9) l_0_2_9)) 0.0))))))))))
(assert
 (let ((?x1397 (- (* (* (* (- 2.0) _a_0_) l_0_2_1) l_0_2_2) (* (* _a_4_ l_0_2_1) l_0_2_1))))
 (let ((?x1403 (- (- ?x1397 (* (* 2.0 l_0_2_13) l_0_2_14)) (* (* 4.0 l_0_2_7) l_0_2_8))))
 (= ?x1403 0.0))))
(assert
 (let ((?x1429 (- (* (* (* (- 2.0) _a_0_) l_0_2_1) l_0_2_4) (* (* _a_2_ l_0_2_1) l_0_2_1))))
 (let ((?x1434 (- (- ?x1429 (* (* 4.0 l_0_2_10) l_0_2_7)) (* (* 2.0 l_0_2_13) l_0_2_16))))
 (= ?x1434 0.0))))
(assert
 (let ((?x1156 (+ (* (* 2.0 l_0_2_2) l_0_2_4) (* (* 2.0 l_0_2_3) l_0_2_5))))
 (let ((?x443 (- _a_0_)))
 (let ((?x1463 (- (- (* ?x443 ?x1156) (* (* _a_1_ l_0_2_1) l_0_2_1)) (* (* (* 2.0 _a_2_) l_0_2_1) l_0_2_2))))
 (let ((?x1467 (- (- ?x1463 (* (* (* 2.0 _a_4_) l_0_2_1) l_0_2_4)) (* (* 4.0 l_0_2_10) l_0_2_8))))
 (let ((?x1473 (- (- ?x1467 (* (* 4.0 l_0_2_11) l_0_2_9)) (* (* 2.0 l_0_2_14) l_0_2_16))))
 (= (- ?x1473 (* (* 2.0 l_0_2_15) l_0_2_17)) 0.0)))))))
(assert
 (let ((?x1269 (* 2.0 l_0_2_10)))
 (let ((?x1537 (* ?x1269 l_0_2_7)))
 (let ((?x1156 (+ (* (* 2.0 l_0_2_2) l_0_2_4) (* (* 2.0 l_0_2_3) l_0_2_5))))
 (let ((?x1531 (- (* (* (* (- 2.0) _a_1_) l_0_2_1) l_0_2_2) (* _a_2_ (+ (* l_0_2_2 l_0_2_2) (* l_0_2_3 l_0_2_3))))))
 (let ((?x1536 (- (- ?x1531 (* _a_4_ ?x1156)) (* (* (* 2.0 _a_5_) l_0_2_1) l_0_2_4))))
 (= (+ ?x1536 ?x1537) 0.0)))))))
(assert
 (let ((?x1087 (* 2.0 l_0_2_7)))
 (let ((?x1588 (* ?x1087 l_0_2_8)))
 (let ((?x1109 (* l_0_2_6 l_0_2_6)))
 (let ((?x1110 (+ (+ (* l_0_2_4 l_0_2_4) (* l_0_2_5 l_0_2_5)) ?x1109)))
 (let ((?x1156 (+ (* (* 2.0 l_0_2_2) l_0_2_4) (* (* 2.0 l_0_2_3) l_0_2_5))))
 (let ((?x1585 (- (- (* (* (* (- 2.0) _a_1_) l_0_2_1) l_0_2_4) (* _a_2_ ?x1156)) (* (* (* 2.0 _a_3_) l_0_2_1) l_0_2_2))))
 (= (+ (- ?x1585 (* _a_4_ ?x1110)) ?x1588) 0.0))))))))
(assert
 (let ((?x1272 (* 2.0 l_0_2_11)))
 (let ((?x1640 (* ?x1272 l_0_2_9)))
 (let ((?x1269 (* 2.0 l_0_2_10)))
 (let ((?x1638 (* ?x1269 l_0_2_8)))
 (let ((?x1156 (+ (* (* 2.0 l_0_2_2) l_0_2_4) (* (* 2.0 l_0_2_3) l_0_2_5))))
 (let ((?x1637 (- (* (- _a_1_) (+ (* l_0_2_2 l_0_2_2) (* l_0_2_3 l_0_2_3))) (* _a_5_ ?x1156))))
 (= (+ (+ ?x1637 ?x1638) ?x1640) 0.0))))))))
(assert
 (let ((?x1272 (* 2.0 l_0_2_11)))
 (let ((?x1640 (* ?x1272 l_0_2_9)))
 (let ((?x1269 (* 2.0 l_0_2_10)))
 (let ((?x1638 (* ?x1269 l_0_2_8)))
 (let ((?x1156 (+ (* (* 2.0 l_0_2_2) l_0_2_4) (* (* 2.0 l_0_2_3) l_0_2_5))))
 (let ((?x1109 (* l_0_2_6 l_0_2_6)))
 (let ((?x1110 (+ (+ (* l_0_2_4 l_0_2_4) (* l_0_2_5 l_0_2_5)) ?x1109)))
 (let ((?x845 (- _a_1_)))
 (= (+ (+ (- (* ?x845 ?x1110) (* _a_3_ ?x1156)) ?x1638) ?x1640) 0.0))))))))))
(assert
 (let ((?x1269 (* 2.0 l_0_2_10)))
 (let ((?x1537 (* ?x1269 l_0_2_7)))
 (let ((?x1109 (* l_0_2_6 l_0_2_6)))
 (let ((?x1110 (+ (+ (* l_0_2_4 l_0_2_4) (* l_0_2_5 l_0_2_5)) ?x1109)))
 (let ((?x986 (- _a_2_)))
 (let ((?x1704 (+ (- (* ?x986 ?x1110) (* (* (* 2.0 _a_3_) l_0_2_1) l_0_2_4)) ?x1537)))
 (= ?x1704 0.0))))))))
(assert
 (let ((?x1087 (* 2.0 l_0_2_7)))
 (let ((?x1588 (* ?x1087 l_0_2_8)))
 (let ((?x1724 (- (* (- _a_4_) (+ (* l_0_2_2 l_0_2_2) (* l_0_2_3 l_0_2_3))) (* (* (* 2.0 _a_5_) l_0_2_1) l_0_2_2))))
 (= (+ ?x1724 ?x1588) 0.0)))))
(assert
 (>= l_0_2_1 0.0))
(assert
 (>= l_0_2_3 0.0))
(assert
 (>= l_0_2_6 0.0))
(assert
 (>= l_0_2_7 0.0))
(assert
 (>= l_0_2_9 0.0))
(assert
 (>= l_0_2_12 0.0))
(assert
 (>= l_0_2_13 0.0))
(assert
 (>= l_0_2_15 0.0))
(assert
 (>= l_0_2_18 0.0))
(check-sat)
(get-model)